# Objective value = 2841.06
I_0_0 2174
I_0_1 2945
I_0_2 2582
I_0_3 2778
I_1_0 178
I_1_1 89
I_1_2 178
I_1_3 89
I_2_0 114
I_2_1 57
I_2_2 1.1400000000000003e+02
I_2_3 5.7000000000000028e+01
I_3_0 55
I_3_1 0
I_3_2 55
I_3_3 0
I_4_0 96
I_4_1 48
I_4_2 0
I_4_3 96
I_5_0 94
I_5_1 47
I_5_2 94
I_5_3 47
I_6_0 78
I_6_1 0
I_6_2 78
I_6_3 0
I_7_0 86
I_7_1 0
I_7_2 86
I_7_3 0
I_8_0 188
I_8_1 94
I_8_2 188
I_8_3 94
I_9_0 30
I_9_1 0
I_9_2 30
I_9_3 0
I_10_0 22
I_10_1 11
I_10_2 22
I_10_3 11
I_11_0 38
I_11_1 0
I_11_2 38
I_11_3 0
I_12_0 74
I_12_1 74
I_12_2 0
I_12_3 74
I_13_0 58
I_13_1 29
I_13_2 0
I_13_3 58
I_14_0 38
I_14_1 19
I_14_2 38
I_14_3 19
I_15_0 180
I_15_1 90
I_15_2 0
I_15_3 180
q_1_0 0
q_1_1 178
q_1_2 0
q_2_0 0
q_2_1 114
q_2_2 0
q_3_0 0
q_3_1 110
q_3_2 0
q_4_0 0
q_4_1 0
q_4_2 144
q_5_0 0
q_5_1 94
q_5_2 0
q_6_0 0
q_6_1 156
q_6_2 0
q_7_0 0
q_7_1 172
q_7_2 0
q_8_0 0
q_8_1 188
q_8_2 0
q_9_0 0
q_9_1 60
q_9_2 0
q_10_0 0
q_10_1 22
q_10_2 0
q_11_0 0
q_11_1 76
q_11_2 0
q_12_0 74
q_12_1 0
q_12_2 148
q_13_0 0
q_13_1 0
q_13_2 87
q_14_0 0
q_14_1 38
q_14_2 0
q_15_0 0
q_15_1 0
q_15_2 270
y_0_0 1
y_0_1 1
y_0_2 1
y_1_0 0
y_1_1 1
y_1_2 0
y_2_0 0
y_2_1 1
y_2_2 0
y_3_0 0
y_3_1 1
y_3_2 0
y_4_0 0
y_4_1 0
y_4_2 1
y_5_0 0
y_5_1 1
y_5_2 0
y_6_0 0
y_6_1 1
y_6_2 0
y_7_0 0
y_7_1 1
y_7_2 0
y_8_0 0
y_8_1 1
y_8_2 0
y_9_0 0
y_9_1 1
y_9_2 0
y_10_0 0
y_10_1 1
y_10_2 0
y_11_0 0
y_11_1 1
y_11_2 0
y_12_0 1
y_12_1 0
y_12_2 1
y_13_0 0
y_13_1 0
y_13_2 1
y_14_0 0
y_14_1 1
y_14_2 0
y_15_0 0
y_15_1 0
y_15_2 1
x_0_1_0 0
x_0_1_1 0
x_0_1_2 0
x_0_2_0 0
x_0_2_1 0
x_0_2_2 0
x_0_3_0 0
x_0_3_1 0
x_0_3_2 0
x_0_4_0 0
x_0_4_1 0
x_0_4_2 1
x_0_5_0 0
x_0_5_1 0
x_0_5_2 0
x_0_6_0 0
x_0_6_1 0
x_0_6_2 0
x_0_7_0 0
x_0_7_1 1
x_0_7_2 0
x_0_8_0 0
x_0_8_1 0
x_0_8_2 0
x_0_9_0 0
x_0_9_1 1
x_0_9_2 0
x_0_10_0 0
x_0_10_1 0
x_0_10_2 0
x_0_11_0 0
x_0_11_1 0
x_0_11_2 0
x_0_12_0 2
x_0_12_1 0
x_0_12_2 0
x_0_13_0 0
x_0_13_1 0
x_0_13_2 1
x_0_14_0 0
x_0_14_1 0
x_0_14_2 0
x_0_15_0 0
x_0_15_1 0
x_0_15_2 0
x_1_2_0 0
x_1_2_1 0
x_1_2_2 0
x_1_3_0 0
x_1_3_1 0
x_1_3_2 0
x_1_4_0 0
x_1_4_1 0
x_1_4_2 0
x_1_5_0 0
x_1_5_1 1
x_1_5_2 0
x_1_6_0 0
x_1_6_1 0
x_1_6_2 0
x_1_7_0 0
x_1_7_1 0
x_1_7_2 0
x_1_8_0 0
x_1_8_1 0
x_1_8_2 0
x_1_9_0 0
x_1_9_1 0
x_1_9_2 0
x_1_10_0 0
x_1_10_1 0
x_1_10_2 0
x_1_11_0 0
x_1_11_1 1
x_1_11_2 0
x_1_12_0 0
x_1_12_1 0
x_1_12_2 0
x_1_13_0 0
x_1_13_1 0
x_1_13_2 0
x_1_14_0 0
x_1_14_1 0
x_1_14_2 0
x_1_15_0 0
x_1_15_1 0
x_1_15_2 0
x_2_3_0 0
x_2_3_1 0
x_2_3_2 0
x_2_4_0 0
x_2_4_1 0
x_2_4_2 0
x_2_5_0 0
x_2_5_1 0
x_2_5_2 0
x_2_6_0 0
x_2_6_1 0
x_2_6_2 0
x_2_7_0 0
x_2_7_1 1
x_2_7_2 0
x_2_8_0 0
x_2_8_1 0
x_2_8_2 0
x_2_9_0 0
x_2_9_1 0
x_2_9_2 0
x_2_10_0 0
x_2_10_1 1
x_2_10_2 0
x_2_11_0 0
x_2_11_1 0
x_2_11_2 0
x_2_12_0 0
x_2_12_1 0
x_2_12_2 0
x_2_13_0 0
x_2_13_1 0
x_2_13_2 0
x_2_14_0 0
x_2_14_1 0
x_2_14_2 0
x_2_15_0 0
x_2_15_1 0
x_2_15_2 0
x_3_4_0 0
x_3_4_1 0
x_3_4_2 0
x_3_5_0 0
x_3_5_1 0
x_3_5_2 0
x_3_6_0 0
x_3_6_1 1
x_3_6_2 0
x_3_7_0 0
x_3_7_1 0
x_3_7_2 0
x_3_8_0 0
x_3_8_1 0
x_3_8_2 0
x_3_9_0 0
x_3_9_1 0
x_3_9_2 0
x_3_10_0 0
x_3_10_1 0
x_3_10_2 0
x_3_11_0 0
x_3_11_1 0
x_3_11_2 0
x_3_12_0 0
x_3_12_1 0
x_3_12_2 0
x_3_13_0 0
x_3_13_1 0
x_3_13_2 0
x_3_14_0 0
x_3_14_1 1
x_3_14_2 0
x_3_15_0 0
x_3_15_1 0
x_3_15_2 0
x_4_5_0 0
x_4_5_1 0
x_4_5_2 0
x_4_6_0 0
x_4_6_1 0
x_4_6_2 0
x_4_7_0 0
x_4_7_1 0
x_4_7_2 0
x_4_8_0 0
x_4_8_1 0
x_4_8_2 0
x_4_9_0 0
x_4_9_1 0
x_4_9_2 0
x_4_10_0 0
x_4_10_1 0
x_4_10_2 0
x_4_11_0 0
x_4_11_1 0
x_4_11_2 0
x_4_12_0 0
x_4_12_1 0
x_4_12_2 1
x_4_13_0 0
x_4_13_1 0
x_4_13_2 0
x_4_14_0 0
x_4_14_1 0
x_4_14_2 0
x_4_15_0 0
x_4_15_1 0
x_4_15_2 0
x_5_6_0 0
x_5_6_1 0
x_5_6_2 0
x_5_7_0 0
x_5_7_1 0
x_5_7_2 0
x_5_8_0 0
x_5_8_1 1
x_5_8_2 0
x_5_9_0 0
x_5_9_1 0
x_5_9_2 0
x_5_10_0 0
x_5_10_1 0
x_5_10_2 0
x_5_11_0 0
x_5_11_1 0
x_5_11_2 0
x_5_12_0 0
x_5_12_1 0
x_5_12_2 0
x_5_13_0 0
x_5_13_1 0
x_5_13_2 0
x_5_14_0 0
x_5_14_1 0
x_5_14_2 0
x_5_15_0 0
x_5_15_1 0
x_5_15_2 0
x_6_7_0 0
x_6_7_1 0
x_6_7_2 0
x_6_8_0 0
x_6_8_1 0
x_6_8_2 0
x_6_9_0 0
x_6_9_1 1
x_6_9_2 0
x_6_10_0 0
x_6_10_1 0
x_6_10_2 0
x_6_11_0 0
x_6_11_1 0
x_6_11_2 0
x_6_12_0 0
x_6_12_1 0
x_6_12_2 0
x_6_13_0 0
x_6_13_1 0
x_6_13_2 0
x_6_14_0 0
x_6_14_1 0
x_6_14_2 0
x_6_15_0 0
x_6_15_1 0
x_6_15_2 0
x_7_8_0 0
x_7_8_1 0
x_7_8_2 0
x_7_9_0 0
x_7_9_1 0
x_7_9_2 0
x_7_10_0 0
x_7_10_1 0
x_7_10_2 0
x_7_11_0 0
x_7_11_1 0
x_7_11_2 0
x_7_12_0 0
x_7_12_1 0
x_7_12_2 0
x_7_13_0 0
x_7_13_1 0
x_7_13_2 0
x_7_14_0 0
x_7_14_1 0
x_7_14_2 0
x_7_15_0 0
x_7_15_1 0
x_7_15_2 0
x_8_9_0 0
x_8_9_1 0
x_8_9_2 0
x_8_10_0 0
x_8_10_1 1
x_8_10_2 0
x_8_11_0 0
x_8_11_1 0
x_8_11_2 0
x_8_12_0 0
x_8_12_1 0
x_8_12_2 0
x_8_13_0 0
x_8_13_1 0
x_8_13_2 0
x_8_14_0 0
x_8_14_1 0
x_8_14_2 0
x_8_15_0 0
x_8_15_1 0
x_8_15_2 0
x_9_10_0 0
x_9_10_1 0
x_9_10_2 0
x_9_11_0 0
x_9_11_1 0
x_9_11_2 0
x_9_12_0 0
x_9_12_1 0
x_9_12_2 0
x_9_13_0 0
x_9_13_1 0
x_9_13_2 0
x_9_14_0 0
x_9_14_1 0
x_9_14_2 0
x_9_15_0 0
x_9_15_1 0
x_9_15_2 0
x_10_11_0 0
x_10_11_1 0
x_10_11_2 0
x_10_12_0 0
x_10_12_1 0
x_10_12_2 0
x_10_13_0 0
x_10_13_1 0
x_10_13_2 0
x_10_14_0 0
x_10_14_1 0
x_10_14_2 0
x_10_15_0 0
x_10_15_1 0
x_10_15_2 0
x_11_12_0 0
x_11_12_1 0
x_11_12_2 0
x_11_13_0 0
x_11_13_1 0
x_11_13_2 0
x_11_14_0 0
x_11_14_1 1
x_11_14_2 0
x_11_15_0 0
x_11_15_1 0
x_11_15_2 0
x_12_13_0 0
x_12_13_1 0
x_12_13_2 0
x_12_14_0 0
x_12_14_1 0
x_12_14_2 0
x_12_15_0 0
x_12_15_1 0
x_12_15_2 1
x_13_14_0 0
x_13_14_1 0
x_13_14_2 0
x_13_15_0 0
x_13_15_1 0
x_13_15_2 1
x_14_15_0 0
x_14_15_1 0
x_14_15_2 0
